c ind 1 2 3 0
p cnf 28 31                 
-3 7 0
-1 5 0
-2 5 0
1 2 -5 0
-5 7 0
3 5 -7 0
-7 27 0
2 -10 0
3 -10 0
1 10 -11 0
2 11 -13 0
1 2 13 -17 0
2 3 -12 0
1 12 13 -20 0
7 23 0
2 4 0
1 4 0
-2 -1 -4 0
5 6 0
3 6 0
-5 -3 -6 0
-4 -6 -7 22 0
-22 23 0
3 -23 24 0
20 -24 25 0
17 1 -25 26 0
-26 27 0
4 -8 0
6 -8 0
-27 0
8 0
